26386.77 0
0 35 144 26 97 109 76 142 104 95 46 13 115 133 42 147 77 143 64 134 40 78 67 88 110 131 148 24 107 60 68 21 5 119 84 16 65 23 93 29 17 123 92 103 111 44 90 137 118 140 27 122 20 11 74 126 85 8 52 51 125 59 70 83 2 6 81 100 135 66 56 106 41 98 61 49 120 86 114 127 75 9 101 89 31 54 87 3 34 94 138 116 129 141 121 105 139 71 39 1 4 28 73 80 128 58 149 96 36 82 30 91 99 14 108 132 12 72 22 33 69 38 32 37 62 136 7 50 146 48 145 112 113 102 25 130 43 79 117 10 57 124 19 15 47 18 53 55 63 45